13811
1859
7
78
0
0
2
2
27
20
18035
0
30
225
356
32
0
3
57
56
0
8
3
55
5
0
4
3
8
10
54
0
0
0
0
7459
28
20
8237
151
0
95
1271
0
4
138
0
0
676
7
139
0
426
0
1961
0
175
8
1031
153
2
6675
0
152
28
61
0
0
17
399
0
2724
969
0
781
88
0
0
387
93
11
8182
0
49
32
1565
154
0
3
0
62
7
0
137
11
17
1281
84
1463
5629
